3	25
496	178	489	496	919	448	244	269	931	735	988	375	454	686	689	338	26	838	591	891	684	377	475	318	454	
853	525	195	542	821	773	279	141	522	253	352	862	652	233	362	282	187	927	516	498	609	113	928	105	961	
3123	3123	3123	
